N = 7;
Capacity = 16;
Demand = [9, 9, 5, 3, 3, 10, 4];
Distance = [|
  0, 42, 47, 52, 34, 18, 25, 34
| 42, 0, 84, 60, 21, 52, 61, 75
| 47, 84, 0, 51, 67, 32, 23, 20
| 52, 60, 51, 0, 40, 38, 42, 59
| 34, 21, 67, 40, 0, 37, 46, 62
| 18, 52, 32, 38, 37, 0, 10, 26
| 25, 61, 23, 42, 46, 10, 0, 18
| 34, 75, 20, 59, 62, 26, 18, 0
|];
